0 550 492
1 306 166
2 172 402
3 250 255
4 379 341
5 383 732
6 639 331
7 5 18
8 446 717
9 29 87
10 348 215
11 787 719
12 170 588
13 436 451
14 45 599
15 97 337
16 71 428
17 40 508
18 356 204
19 101 291
